     Program PWSCF v.6.4.1 starts on 22Dec2020 at 15:12:23

     R & G space division:  proc/nbgrp/npool/nimage =       4
     Waiting for input...
     Reading input from standard input

     Current dimensions of program PWSCF are:
     Max number of different atomic species (ntypx) = 10
     Max number of k-points (npk) =  40000
     Max angular momentum in pseudopotentials (lmaxx) =  3
               file Ga.pbe-dn-kjpaw_psl.1.0.0.UPF: wavefunction(s)  4S renormalized

     Subspace diagonalization in iterative solution of the eigenvalue problem:
     a serial algorithm will be used

     Title:
     Mn2CoGa

     bravais-lattice index     =            2
     lattice parameter (alat)  =      10.0000  a.u.
     unit-cell volume          =     250.0000 (a.u.)^3
     number of atoms/cell      =            4
     number of atomic types    =            3
     number of electrons       =        60.00
     number of Kohn-Sham states=           36
     kinetic-energy cutoff     =     140.0000  Ry
     charge density cutoff     =    1400.0000  Ry
     convergence threshold     =      1.0E-06
     mixing beta               =       0.7000
     number of iterations used =            8  plain     mixing
     Exchange-correlation      = SLA PW PBX PBC ( 1  4  3  4 0 0)
     nstep                     =           50

     celldm(1)=  10.000000  celldm(2)=   0.000000  celldm(3)=   0.000000
     celldm(4)=   0.000000  celldm(5)=   0.000000  celldm(6)=   0.000000

     crystal axes: (cart. coord. in units of alat)
               a(1) = (  -0.500000   0.000000   0.500000 )
               a(2) = (   0.000000   0.500000   0.500000 )
               a(3) = (  -0.500000   0.500000   0.000000 )

     reciprocal axes: (cart. coord. in units 2 pi/alat)
               b(1) = ( -1.000000 -1.000000  1.000000 )
               b(2) = (  1.000000  1.000000  1.000000 )
               b(3) = ( -1.000000  1.000000 -1.000000 )

     PseudoPot. # 1 for Mn read from file:
     /home/ujjawal/QE/QE_Sample_Input_Files/SSSP_efficiency_pseudos/mn_pbe_v1.5.uspp.F.UPF
     MD5 check sum: 82ef2b46521d7a7d9e736dc3972e4928
     Pseudo is Ultrasoft + core correction, Zval = 15.0
     Generated by new atomic code, or converted to UPF format
     Using radial grid of  859 points,  6 beta functions with:
                l(1) =   0
                l(2) =   0
                l(3) =   1
                l(4) =   1
                l(5) =   2
                l(6) =   2
     Q(r) pseudized with  8 coefficients,  rinner =    0.950   0.950   0.950
                                                       0.950   0.950

     PseudoPot. # 2 for Co read from file:
     /home/ujjawal/QE/QE_Sample_Input_Files/SSSP_efficiency_pseudos/Co_pbe_v1.2.uspp.F.UPF
     MD5 check sum: 5f91765df6ddd3222702df6e7b74a16d
     Pseudo is Ultrasoft + core correction, Zval = 17.0
     Generated by new atomic code, or converted to UPF format
     Using radial grid of  863 points,  6 beta functions with:
                l(1) =   0
                l(2) =   0
                l(3) =   1
                l(4) =   1
                l(5) =   2
                l(6) =   2
     Q(r) pseudized with  8 coefficients,  rinner =    1.200   1.200   1.200
                                                       1.200   1.200

     PseudoPot. # 3 for Ga read from file:
     /home/ujjawal/QE/QE_Sample_Input_Files/SSSP_efficiency_pseudos/Ga.pbe-dn-kjpaw_psl.1.0.0.UPF
     MD5 check sum: a27b4342b1af7e5f338de752e9ed7044
     Pseudo is Projector augmented-wave + core cor, Zval = 13.0
     Generated using "atomic" code by A. Dal Corso v.5.1
     Shape of augmentation charge: PSQ
     Using radial grid of 1205 points,  6 beta functions with:
                l(1) =   0
                l(2) =   0
                l(3) =   1
                l(4) =   1
                l(5) =   2
                l(6) =   2
     Q(r) pseudized with 0 coefficients

     atomic species   valence    mass     pseudopotential
        Mn            15.00    54.93804     Mn( 1.00)
        Co            17.00    58.93319     Co( 1.00)
        Ga            13.00    69.72300     Ga( 1.00)

     Starting magnetic structure
     atomic species   magnetization
        Mn           0.500
        Co          -0.300
        Ga           0.100

     24 Sym. Ops. (no inversion) found

   Cartesian axes

     site n.     atom                  positions (alat units)
         1           Co  tau(   1) = (   0.5000000   0.5000000   0.5000000  )
         2           Mn  tau(   2) = (   0.2500000   0.2500000   0.2500000  )
         3           Ga  tau(   3) = (   0.7500000   0.7500000   0.7500000  )
         4           Mn  tau(   4) = (   0.0000000   0.0000000   0.0000000  )

     number of k points=    16  Marzari-Vanderbilt smearing, width (Ry)=  0.0100
                       cart. coord. in units 2pi/alat
        k(    1) = (   0.0000000   0.0000000   0.0000000), wk =   0.0046296
        k(    2) = (  -0.1666667   0.1666667  -0.1666667), wk =   0.0370370
        k(    3) = (  -0.3333333   0.3333333  -0.3333333), wk =   0.0370370
        k(    4) = (   0.5000000  -0.5000000   0.5000000), wk =   0.0185185
        k(    5) = (   0.0000000   0.3333333   0.0000000), wk =   0.0277778
        k(    6) = (  -0.1666667   0.5000000  -0.1666667), wk =   0.1111111
        k(    7) = (   0.6666667  -0.3333333   0.6666667), wk =   0.1111111
        k(    8) = (   0.5000000  -0.1666667   0.5000000), wk =   0.1111111
        k(    9) = (   0.3333333   0.0000000   0.3333333), wk =   0.0555556
        k(   10) = (   0.0000000   0.6666667   0.0000000), wk =   0.0277778
        k(   11) = (   0.8333333  -0.1666667   0.8333333), wk =   0.1111111
        k(   12) = (   0.6666667  -0.0000000   0.6666667), wk =   0.0555556
        k(   13) = (   0.0000000  -1.0000000   0.0000000), wk =   0.0138889
        k(   14) = (   0.6666667  -0.3333333   1.0000000), wk =   0.1111111
        k(   15) = (   0.5000000  -0.1666667   0.8333333), wk =   0.1111111
        k(   16) = (  -0.3333333  -1.0000000   0.0000000), wk =   0.0555556

     Check: negative core charge=   -0.000011

     Initial potential from superposition of free atoms

     starting charge   57.99687, renormalised to   60.00000
     Starting wfcs are   48 randomized atomic wfcs
     Checking if some PAW data can be deallocated...

     Self-consistent Calculation

     iteration #  1     ecut=   140.00 Ry     beta= 0.70
     Davidson diagonalization with overlap
     ethr =  1.00E-02,  avg # of iterations =  2.6

     total energy              =    -993.56910568 Ry
     Harris-Foulkes estimate   =    -998.62699603 Ry
     estimated scf accuracy    <       8.64378089 Ry

     total magnetization       =     3.01 Bohr mag/cell
     absolute magnetization    =     8.43 Bohr mag/cell

[...]

     Magnetic moment per site:
     atom:    1    charge:   15.4522    magn:    0.6829    constr:    0.0000
     atom:    2    charge:   13.1059    magn:    1.9128    constr:    0.0000
     atom:    3    charge:   11.0667    magn:   -0.0140    constr:    0.0000
     atom:    4    charge:   13.1896    magn:   -0.5941    constr:    0.0000

     End of self-consistent calculation

 ------ SPIN UP ------------

          k = 0.0000 0.0000 0.0000 (  6879 PWs)   bands (ev):

   -72.3529 -57.2538 -55.4496 -35.6800 -35.6800 -35.6800 -26.0608 -26.0608
   -26.0608 -24.2892 -24.2892 -24.2892   8.3791   8.3791   8.3800   8.3800
     8.3800  11.2056  18.4129  18.4129  18.7409  18.7409  18.7409  20.1446
    20.1446  20.1446  22.5902  22.5902  23.3588  23.3588  23.3588  24.1650
    24.1650  30.2585  30.2585  30.2585

          k =-0.1667 0.1667-0.1667 (  6970 PWs)   bands (ev):

[...]

 ------ SPIN DOWN ----------

[...]

     the Fermi energy is    23.1791 ev

!    total energy              =    -998.72812831 Ry
     Harris-Foulkes estimate   =    -998.72812833 Ry
     estimated scf accuracy    <       0.00000019 Ry

     The total energy is the sum of the following terms:

     one-electron contribution =    -323.08306829 Ry
     hartree contribution      =     219.60515480 Ry
     xc contribution           =    -125.12153423 Ry
     ewald contribution        =    -658.08836179 Ry
     one-center paw contrib.   =    -112.04090291 Ry
     smearing contrib. (-TS)   =       0.00058412 Ry

[...]

     convergence has been achieved in  22 iterations

     Forces acting on atoms (cartesian axes, Ry/au):

     atom    1 type  2   force =     0.00000000    0.00000000    0.00000000
     atom    2 type  1   force =     0.00000000    0.00000000   -0.00000000
     atom    3 type  3   force =     0.00000000   -0.00000000    0.00000000
     atom    4 type  1   force =     0.00000000    0.00000000    0.00000000

     Total force =     0.000000     Total SCF correction =     0.000000

     Computing stress (Cartesian axis) and pressure

          total   stress  (Ry/bohr**3)                   (kbar)     P=  797.44
   0.00542089  -0.00000000   0.00000000        797.44     -0.00      0.00
  -0.00000000   0.00542089   0.00000000         -0.00    797.44      0.00
   0.00000000   0.00000000   0.00542089          0.00      0.00    797.44

     BFGS Geometry Optimization

     number of scf cycles    =   1
     number of bfgs steps    =   0

     enthalpy new            =    -998.7281283083 Ry

     new trust radius        =       0.4285589907 bohr
     new conv_thr            =       0.0000010000 Ry

     new unit-cell volume =    366.03866 a.u.^3 (    54.24133 Ang^3 )
     density =      7.30240 g/cm^3

CELL_PARAMETERS (alat= 10.00000000)
  -0.567761127   0.000000000   0.567761127
   0.000000000   0.567761127   0.567761127
  -0.567761127   0.567761127   0.000000000

ATOMIC_POSITIONS (alat)
Co       0.567761127   0.567761127   0.567761127
Mn       0.283880563   0.283880563   0.283880563
Ga       0.851641690   0.851641690   0.851641690
Mn       0.000000000   0.000000000   0.000000000

     Writing output data file Mn2CoGa.save/
     NEW-OLD atomic charge density approx. for the potential

     Check: negative core charge=   -0.000011
     extrapolated charge   78.38571, renormalised to   60.00000

[...]

     enthalpy old            =    -998.7281283083 Ry
     enthalpy new            =    -998.7513668269 Ry

     CASE: enthalpy_new < enthalpy_old

[...]

     CASE: enthalpy_new < enthalpy_old

[...]

     number of scf cycles    =   4
     number of bfgs steps    =   3

     enthalpy old            =    -998.8325731809 Ry
     enthalpy new            =    -998.8325724118 Ry

     CASE: enthalpy_new > enthalpy_old

     new trust radius        =       0.0003751181 bohr
     new conv_thr            =       0.0000000100 Ry

     new unit-cell volume =    328.85218 a.u.^3 (    48.73086 Ang^3 )
     density =      8.12816 g/cm^3

[...]

ATOMIC_POSITIONS (alat)
Co       0.547843998   0.547843998   0.547843998
Mn       0.273921999   0.273921999   0.273921999
Ga       0.821765998   0.821765998   0.821765998
Mn      -0.000000000  -0.000000000  -0.000000000

     Writing output data file Mn2CoGa.save/
     NEW-OLD atomic charge density approx. for the potential

     Check: negative core charge=   -0.000006
     extrapolated charge   60.02640, renormalised to   60.00000

[...]

     bfgs converged in   5 scf cycles and   3 bfgs steps
     (criteria: energy <  1.0E-06 Ry, force <  1.0E-06Ry/Bohr, cell <  5.0E-01kbar)

     End of BFGS Geometry Optimization

     Final enthalpy =    -998.8325735216 Ry
Begin final coordinates
     new unit-cell volume =    328.85218 a.u.^3 (    48.73086 Ang^3 )
     density =      8.12816 g/cm^3

CELL_PARAMETERS (alat= 10.00000000)
  -0.547843998   0.000000000   0.547843998
   0.000000000   0.547843998   0.547843998
  -0.547843998   0.547843998  -0.000000000

ATOMIC_POSITIONS (alat)
Co       0.547843998   0.547843998   0.547843998
Mn       0.273921999   0.273921999   0.273921999
Ga       0.821765998   0.821765998   0.821765998
Mn      -0.000000000  -0.000000000  -0.000000000
End final coordinates

     Writing output data file Mn2CoGa.save/

     A final scf calculation at the relaxed structure.
     The G-vectors are recalculated for the final unit cell
     Results may differ from those at the preceding step.

     Title:
     Mn2CoGa

     bravais-lattice index     =            2
     lattice parameter (alat)  =      10.0000  a.u.
     unit-cell volume          =     328.8522 (a.u.)^3
     number of atoms/cell      =            4
     number of atomic types    =            3
     number of electrons       =        60.00
     number of Kohn-Sham states=           36
     kinetic-energy cutoff     =     140.0000  Ry
     charge density cutoff     =    1400.0000  Ry
     convergence threshold     =      1.0E-08
     mixing beta               =       0.7000
     number of iterations used =            8  plain     mixing
     Exchange-correlation      = SLA PW PBX PBC ( 1  4  3  4 0 0)

     celldm(1)=  10.000000  celldm(2)=   0.000000  celldm(3)=   0.000000
     celldm(4)=   0.000000  celldm(5)=   0.000000  celldm(6)=   0.000000

     crystal axes: (cart. coord. in units of alat)
               a(1) = (  -0.547844   0.000000   0.547844 )
               a(2) = (   0.000000   0.547844   0.547844 )
               a(3) = (  -0.547844   0.547844  -0.000000 )

     reciprocal axes: (cart. coord. in units 2 pi/alat)
               b(1) = ( -0.912669 -0.912669  0.912669 )
               b(2) = (  0.912669  0.912669  0.912669 )
               b(3) = ( -0.912669  0.912669 -0.912669 )

     PseudoPot. # 1 for Mn read from file:
     /home/ujjawal/QE/QE_Sample_Input_Files/SSSP_efficiency_pseudos/mn_pbe_v1.5.uspp.F.UPF
     MD5 check sum: 82ef2b46521d7a7d9e736dc3972e4928
     Pseudo is Ultrasoft + core correction, Zval = 15.0
     Generated by new atomic code, or converted to UPF format
     Using radial grid of  859 points,  6 beta functions with:
                l(1) =   0
                l(2) =   0
                l(3) =   1
                l(4) =   1
                l(5) =   2
                l(6) =   2
     Q(r) pseudized with  8 coefficients,  rinner =    0.950   0.950   0.950
                                                       0.950   0.950

     PseudoPot. # 2 for Co read from file:
     /home/ujjawal/QE/QE_Sample_Input_Files/SSSP_efficiency_pseudos/Co_pbe_v1.2.uspp.F.UPF
     MD5 check sum: 5f91765df6ddd3222702df6e7b74a16d
     Pseudo is Ultrasoft + core correction, Zval = 17.0
     Generated by new atomic code, or converted to UPF format
     Using radial grid of  863 points,  6 beta functions with:
                l(1) =   0
                l(2) =   0
                l(3) =   1
                l(4) =   1
                l(5) =   2
                l(6) =   2
     Q(r) pseudized with  8 coefficients,  rinner =    1.200   1.200   1.200
                                                       1.200   1.200

     PseudoPot. # 3 for Ga read from file:
     /home/ujjawal/QE/QE_Sample_Input_Files/SSSP_efficiency_pseudos/Ga.pbe-dn-kjpaw_psl.1.0.0.UPF
     MD5 check sum: a27b4342b1af7e5f338de752e9ed7044
     Pseudo is Projector augmented-wave + core cor, Zval = 13.0
     Generated using "atomic" code by A. Dal Corso v.5.1
     Shape of augmentation charge: PSQ
     Using radial grid of 1205 points,  6 beta functions with:
                l(1) =   0
                l(2) =   0
                l(3) =   1
                l(4) =   1
                l(5) =   2
                l(6) =   2
     Q(r) pseudized with 0 coefficients

     atomic species   valence    mass     pseudopotential
        Mn            15.00    54.93804     Mn( 1.00)
        Co            17.00    58.93319     Co( 1.00)
        Ga            13.00    69.72300     Ga( 1.00)

     Starting magnetic structure
     atomic species   magnetization
        Mn          -0.167
        Co          -0.083
        Ga           0.005

     24 Sym. Ops. (no inversion) found

   Cartesian axes

     site n.     atom                  positions (alat units)
         1           Co  tau(   1) = (   0.5478440   0.5478440   0.5478440  )
         2           Mn  tau(   2) = (   0.2739220   0.2739220   0.2739220  )
         3           Ga  tau(   3) = (   0.8217660   0.8217660   0.8217660  )
         4           Mn  tau(   4) = (  -0.0000000  -0.0000000  -0.0000000  )

     number of k points=    16  Marzari-Vanderbilt smearing, width (Ry)=  0.0100
                       cart. coord. in units 2pi/alat
        k(    1) = (   0.0000000   0.0000000   0.0000000), wk =   0.0046296
        k(    2) = (  -0.1521114   0.1521114  -0.1521114), wk =   0.0370370
        k(    3) = (  -0.3042229   0.3042229  -0.3042229), wk =   0.0370370
        k(    4) = (   0.4563343  -0.4563343   0.4563343), wk =   0.0185185
        k(    5) = (  -0.0000000   0.3042229  -0.0000000), wk =   0.0277778
        k(    6) = (  -0.1521114   0.4563343  -0.1521114), wk =   0.1111111
        k(    7) = (   0.6084457  -0.3042229   0.6084457), wk =   0.1111111
        k(    8) = (   0.4563343  -0.1521114   0.4563343), wk =   0.1111111
        k(    9) = (   0.3042229   0.0000000   0.3042229), wk =   0.0555556
        k(   10) = (  -0.0000000   0.6084457  -0.0000000), wk =   0.0277778
        k(   11) = (   0.7605571  -0.1521114   0.7605571), wk =   0.1111111
        k(   12) = (   0.6084457   0.0000000   0.6084457), wk =   0.0555556
        k(   13) = (   0.0000000  -0.9126686   0.0000000), wk =   0.0138889
        k(   14) = (   0.6084457  -0.3042229   0.9126686), wk =   0.1111111
        k(   15) = (   0.4563343  -0.1521114   0.7605571), wk =   0.1111111
        k(   16) = (  -0.3042229  -0.9126686  -0.0000000), wk =   0.0555556

     Check: negative core charge=   -0.000011

     Initial potential from superposition of free atoms

     starting charge   57.99687, renormalised to   60.00000
     Starting wfcs are   48 randomized atomic wfcs
     Checking if some PAW data can be deallocated...

     Self-consistent Calculation

[...]

     total energy              =    -998.88131312 Ry
     Harris-Foulkes estimate   =    -998.88131312 Ry
     estimated scf accuracy    <       0.00000002 Ry

[...]

     iteration # 28     ecut=   140.00 Ry     beta= 0.70
     Davidson diagonalization with overlap
     ethr =  2.65E-11,  avg # of iterations =  4.2

     Magnetic moment per site:
     atom:    1    charge:   15.1639    magn:   -1.0420    constr:    0.0000
     atom:    2    charge:   12.8318    magn:   -2.7402    constr:    0.0000
     atom:    3    charge:   10.8027    magn:    0.0045    constr:    0.0000
     atom:    4    charge:   12.8759    magn:    1.7886    constr:    0.0000

     End of self-consistent calculation

 ------ SPIN UP ------------

[...]

 ------ SPIN DOWN ----------

[...]

          k = 0.4563-0.1521 0.7606 (  9192 PWs)   bands (ev):

[...]

          k =-0.3042-0.9127-0.0000 (  9198 PWs)   bands (ev):

   -78.4646 -63.7729 -61.1273 -41.7448 -41.7446 -41.7440 -32.5170 -32.5158
   -32.5103 -29.9346 -29.9276 -29.9270   2.5070   2.5331   2.5418   2.5464
     2.5729   9.7451  11.8361  12.6642  13.2866  14.0008  14.2246  14.2862
    14.6692  15.1599  15.6351  15.6395  15.8656  16.0209  16.1752  17.1435
    17.5299  17.8623  17.9889  18.4165

     the Fermi energy is    17.0131 ev

!    total energy              =    -998.88131313 Ry
     Harris-Foulkes estimate   =    -998.88131313 Ry
     estimated scf accuracy    <          9.4E-09 Ry

     The total energy is the sum of the following terms:

     one-electron contribution =    -413.06857436 Ry
     hartree contribution      =     250.48870240 Ry
     xc contribution           =    -124.21806236 Ry
     ewald contribution        =    -600.61656569 Ry
     one-center paw contrib.   =    -111.46685036 Ry
     smearing contrib. (-TS)   =       0.00003725 Ry

     total magnetization       =    -2.02 Bohr mag/cell
     absolute magnetization    =     6.15 Bohr mag/cell

     convergence has been achieved in  28 iterations

     Forces acting on atoms (cartesian axes, Ry/au):

     atom    1 type  2   force =     0.00000000    0.00000000   -0.00000000
     atom    2 type  1   force =     0.00000000    0.00000000    0.00000000
     atom    3 type  3   force =     0.00000000   -0.00000000   -0.00000000
     atom    4 type  1   force =     0.00000000   -0.00000000    0.00000000

     Total force =     0.000000     Total SCF correction =     0.000000

     Computing stress (Cartesian axis) and pressure

          total   stress  (Ry/bohr**3)                   (kbar)     P=  -20.19
  -0.00013723   0.00000000   0.00000000        -20.19      0.00      0.00
   0.00000000  -0.00013723   0.00000000          0.00    -20.19      0.00
   0.00000000   0.00000000  -0.00013723          0.00      0.00    -20.19

     Writing output data file Mn2CoGa.save/

     General routines

     Parallel routines

   This run was terminated on:  20:10:22  22Dec2020

   JOB DONE.